2234.0 33465.0 
2237.0 33254.0 
2359.0 32575.0 
2237.0 33254.0 
2274.0 32691.0 
2302.0 32605.0 
2307.0 32589.0 
2359.0 32575.0 
2220.0 33632.0 
2213.0 33722.0 
2297.0 32674.0 
2386.0 32520.0 
2242.0 33059.0 
2223.0 33528.0 
2243.0 32998.0 
2272.0 32816.0 
